s td 55 6 60
b 1 1 2 13
b 2 11 12 24
b 3 37 49 50
b 4 48 59 60
b 5 2 3 13 14
b 6 10 11 23 24
b 7 3 4 16 29 42 55
b 8 4 5 16 29 42 55
b 9 5 16 18 29 42 55
b 10 5 18 29 31 42 55
b 11 5 18 31 42 44 55
b 12 5 18 31 44 55 57
b 13 5 7 18 31 44 57
b 14 5 6 7 18
b 15 7 18 20 31 44 57
b 16 7 20 31 33 44 57
b 17 7 20 33 44 46 57
b 18 7 9 20 33 46 57
b 19 7 8 9 20
b 20 9 20 22 33 46 57
b 21 9 22 33 35 46 57
b 22 9 22 35 36 46 57
b 23 9 22 23 35 36
b 24 9 10 22 23 36
b 25 10 23 24 36
b 26 35 36 46 57 59
b 27 35 36 46 47 59
b 28 46 57 58 59
b 29 22 33 34 35 46
b 30 9 20 21 22 33
b 31 33 44 45 46 57
b 32 20 31 32 33 44
b 33 7 18 19 20 31
b 34 44 55 56 57
b 35 31 42 43 44 55
b 36 18 29 30 31 42
b 37 5 16 17 18 29
b 38 3 16 29 42 53 55
b 39 3 16 29 40 42 53
b 40 3 16 27 29 40 53
b 41 3 14 16 27 40 53
b 42 3 14 25 27 40 53
b 43 3 13 14 25
b 44 14 25 27 38 40 53
b 45 14 25 26 27 38
b 46 25 27 38 40 51 53
b 47 27 38 39 40 51
b 48 25 38 50 51
b 49 40 51 52 53
b 50 3 14 15 16 27
b 51 16 27 28 29 40
b 52 29 40 41 42 53
b 53 42 53 54 55
b 54 25 37 38 50
b 55 36 47 48 59
1 5
2 6
3 54
4 55
5 43
6 25
7 8
7 38
8 9
9 10
9 37
10 11
10 36
11 12
11 35
12 13
12 34
13 14
13 15
15 16
15 33
16 17
16 32
17 18
17 31
18 19
18 20
20 21
20 30
21 22
21 29
22 23
22 26
23 24
24 25
26 27
26 28
27 55
38 39
38 53
39 40
39 52
40 41
40 51
41 42
41 50
42 43
42 44
44 45
44 46
46 47
46 48
46 49
48 54
